(set-logic QF_S)
(set-option :produce-models true)

(declare-fun s588 () String)
(declare-fun s608 () String)
(declare-fun s583 () String)
(declare-fun s593 () String)
(declare-fun s603 () String)
(declare-fun s623 () String)
(declare-fun s561 () String)
(declare-fun s598 () String)

(assert (= s598 "r" ))
(assert (= s588 "k" ))
(assert (= s561 s608 ))
(assert (= s583 "p" ))
(assert (not (= s561 s588 )))
(assert (= s608 "h" ))
(assert (not (= s561 s623 )))
(assert (not (= s561 s593 )))
(assert (not (= s561 s598 )))
(assert (not (= s561 s603 )))
(assert (= s603 "l" ))
(assert (= s561 s623 ))
(assert (not (= s561 s583 )))
(assert (= s593 "g" ))
(assert (= s623 "q" ))


(check-sat)
(get-model)
